Welcome to the CBC MILP Solver 
Version: Trunk
Build Date: Apr 16 2020 

Starting solution of the Linear programming relaxation problem using Primal Simplex

Using Python-MIP package version 1.8.1
Machines:  4 Jobs:  4
Order: 
Job  0 : machine 0 ( 10 ) machine 3 ( 1 ) machine 2 ( 6 ) machine 1 ( 7 ) 
Job  1 : machine 0 ( 1 ) machine 3 ( 7 ) machine 1 ( 5 ) machine 2 ( 8 ) 
Job  2 : machine 3 ( 9 ) machine 2 ( 3 ) machine 1 ( 7 ) machine 0 ( 1 ) 
Job  3 : machine 1 ( 7 ) machine 3 ( 3 ) machine 0 ( 9 ) machine 2 ( 10 ) 
K:  44
Job  0 , e: machine  0 ( 0 ) machine  1 ( 17 ) machine  2 ( 11 ) machine  3 ( 10 ) 
Job  1 , e: machine  0 ( 0 ) machine  1 ( 8 ) machine  2 ( 13 ) machine  3 ( 1 ) 
Job  2 , e: machine  0 ( 19 ) machine  1 ( 12 ) machine  2 ( 9 ) machine  3 ( 0 ) 
Job  3 , e: machine  0 ( 10 ) machine  1 ( 0 ) machine  2 ( 19 ) machine  3 ( 7 ) 
Job  0 , f: machine  0 ( 14 ) machine  1 ( 0 ) machine  2 ( 7 ) machine  3 ( 13 ) 
Job  1 , f: machine  0 ( 20 ) machine  1 ( 8 ) machine  2 ( 0 ) machine  3 ( 13 ) 
Job  2 , f: machine  0 ( 0 ) machine  1 ( 1 ) machine  2 ( 8 ) machine  3 ( 11 ) 
Job  3 , f: machine  0 ( 10 ) machine  1 ( 22 ) machine  2 ( 0 ) machine  3 ( 19 ) 
EST and LST:
Job: 0 Machine: 0 EST: 0 LST: 20
Job: 0 Machine: 1 EST: 17 LST: 37
Job: 0 Machine: 2 EST: 11 LST: 31
Job: 0 Machine: 3 EST: 10 LST: 30
Job: 1 Machine: 0 EST: 0 LST: 23
Job: 1 Machine: 1 EST: 8 LST: 31
Job: 1 Machine: 2 EST: 13 LST: 36
Job: 1 Machine: 3 EST: 1 LST: 24
Job: 2 Machine: 0 EST: 19 LST: 43
Job: 2 Machine: 1 EST: 12 LST: 36
Job: 2 Machine: 2 EST: 9 LST: 33
Job: 2 Machine: 3 EST: 0 LST: 24
Job: 3 Machine: 0 EST: 10 LST: 25
Job: 3 Machine: 1 EST: 0 LST: 15
Job: 3 Machine: 2 EST: 19 LST: 34
Job: 3 Machine: 3 EST: 7 LST: 22
Order:
Job: 0 Machine: 0 = 0 
Job: 0 Machine: 1 = 3 
Job: 0 Machine: 2 = 2 
Job: 0 Machine: 3 = 1 
Job: 1 Machine: 0 = 0 
Job: 1 Machine: 1 = 2 
Job: 1 Machine: 2 = 3 
Job: 1 Machine: 3 = 1 
Job: 2 Machine: 0 = 3 
Job: 2 Machine: 1 = 2 
Job: 2 Machine: 2 = 1 
Job: 2 Machine: 3 = 0 
Job: 3 Machine: 0 = 2 
Job: 3 Machine: 1 = 0 
Job: 3 Machine: 2 = 3 
Job: 3 Machine: 3 = 1 
Distances:
Job 0, Machine 0 -> Machine 3: distance 10
Job 0, Machine 0 -> Machine 2: distance 11
Job 0, Machine 0 -> Machine 1: distance 17
Job 0, Machine 3 -> Machine 2: distance 1
Job 0, Machine 3 -> Machine 1: distance 7
Job 0, Machine 2 -> Machine 1: distance 6
Job 1, Machine 0 -> Machine 3: distance 1
Job 1, Machine 0 -> Machine 1: distance 8
Job 1, Machine 0 -> Machine 2: distance 13
Job 1, Machine 3 -> Machine 1: distance 7
Job 1, Machine 3 -> Machine 2: distance 12
Job 1, Machine 1 -> Machine 2: distance 5
Job 2, Machine 3 -> Machine 2: distance 9
Job 2, Machine 3 -> Machine 1: distance 12
Job 2, Machine 3 -> Machine 0: distance 19
Job 2, Machine 2 -> Machine 1: distance 3
Job 2, Machine 2 -> Machine 0: distance 10
Job 2, Machine 1 -> Machine 0: distance 7
Job 3, Machine 1 -> Machine 3: distance 7
Job 3, Machine 1 -> Machine 0: distance 10
Job 3, Machine 1 -> Machine 2: distance 19
Job 3, Machine 3 -> Machine 0: distance 3
Job 3, Machine 3 -> Machine 2: distance 12
Job 3, Machine 0 -> Machine 2: distance 9
McCormic linearization
[(1, 2), (3, 2), (0, 0), (3, 3), (2, 0), (2, 3), (1, 0), (0, 2)]
obj:  0.6000000000000001
solutions:  1
+ x(0,0) + 0.10000000000000002x(1,0) 
C:  29.0
x(0,0) = 0.73	 x(0,1) = 19.06	 x(0,2) = 11.73	 x(0,3) = 10.73	 
x(1,0) = 2.73	 x(1,1) = 10.73	 x(1,2) = 20.27	 x(1,3) = 3.73	 
x(2,0) = 24.24	 x(2,1) = 17.24	 x(2,2) = 14.24	 x(2,3) = 5.24	 
x(3,0) = 10.00	 x(3,1) = 0.00	 x(3,2) = 19.00	 x(3,3) = 7.00	 
y(0,1,0) = 0.13	 y(1,0,0) = 0.87	 
y(0,2,0) = 0.56	 y(2,0,0) = 0.44	 
y(0,3,0) = 0.96	 y(3,0,0) = 0.04	 
y(1,2,0) = 0.51	 y(2,1,0) = 0.49	 
y(1,3,0) = 0.74	 y(3,1,0) = 0.26	 
y(2,3,0) = 0.00	 y(3,2,0) = 1.00	 
y(0,1,1) = 0.00	 y(1,0,1) = 1.00	 
y(0,2,1) = 0.20	 y(2,0,1) = 0.80	 
y(0,3,1) = 0.00	 y(3,0,1) = 1.00	 
y(1,2,1) = 0.39	 y(2,1,1) = 0.61	 
y(1,3,1) = 0.16	 y(3,1,1) = 0.84	 
y(2,3,1) = 0.00	 y(3,2,1) = 1.00	 
y(0,1,2) = 0.76	 y(1,0,2) = 0.24	 
y(0,2,2) = 0.46	 y(2,0,2) = 0.54	 
y(0,3,2) = 0.93	 y(3,0,2) = 0.07	 
y(1,2,2) = 0.00	 y(2,1,2) = 1.00	 
y(1,3,2) = 0.28	 y(3,1,2) = 0.72	 
y(2,3,2) = 0.92	 y(3,2,2) = 0.08	 
y(0,1,3) = 0.00	 y(1,0,3) = 1.00	 
y(0,2,3) = 0.15	 y(2,0,3) = 0.85	 
y(0,3,3) = 0.04	 y(3,0,3) = 0.96	 
y(1,2,3) = 0.33	 y(2,1,3) = 0.67	 
y(1,3,3) = 0.26	 y(3,1,3) = 0.74	 
y(2,3,3) = 0.19	 y(3,2,3) = 0.81	 
obj:  0.9693446088794927
solutions:  1
+ 0.10000000000000019x(0,0) + 0.09999999999999998x(1,3) + 0.09999999999999998x(2,3) 
[(0, 0), (1, 3), (2, 1), (2, 0), (1, 1), (2, 3), (2, 2), (1, 0), (0, 2)]
cliques:  1 mip: 56
C:  29.000000000000004
x(0,0) = 1.17	 x(0,1) = 20.75	 x(0,2) = 12.17	 x(0,3) = 11.17	 
x(1,0) = 0.17	 x(1,1) = 13.66	 x(1,2) = 21.00	 x(1,3) = 6.66	 
x(2,0) = 21.17	 x(2,1) = 14.17	 x(2,2) = 11.17	 x(2,3) = 2.17	 
x(3,0) = 10.00	 x(3,1) = 0.00	 x(3,2) = 19.00	 x(3,3) = 7.00	 
y(0,1,0) = 0.00	 y(1,0,0) = 1.00	 
y(0,2,0) = 0.65	 y(2,0,0) = 0.35	 
y(0,3,0) = 0.94	 y(3,0,0) = 0.06	 
y(1,2,0) = 0.83	 y(2,1,0) = 0.17	 
y(1,3,0) = 0.63	 y(3,1,0) = 0.37	 
y(2,3,0) = 0.00	 y(3,2,0) = 1.00	 
y(0,1,1) = 0.00	 y(1,0,1) = 1.00	 
y(0,2,1) = 0.02	 y(2,0,1) = 0.98	 
y(0,3,1) = 0.00	 y(3,0,1) = 1.00	 
y(1,2,1) = 0.57	 y(2,1,1) = 0.43	 
y(1,3,1) = 0.28	 y(3,1,1) = 0.72	 
y(2,3,1) = 0.00	 y(3,2,1) = 1.00	 
y(0,1,2) = 0.85	 y(1,0,2) = 0.15	 
y(0,2,2) = 0.08	 y(2,0,2) = 0.92	 
y(0,3,2) = 0.71	 y(3,0,2) = 0.29	 
y(1,2,2) = 0.00	 y(2,1,2) = 1.00	 
y(1,3,2) = 0.26	 y(3,1,2) = 0.74	 
y(2,3,2) = 0.78	 y(3,2,2) = 0.22	 
y(0,1,3) = 0.26	 y(1,0,3) = 0.74	 
y(0,2,3) = 0.00	 y(2,0,3) = 1.00	 
y(0,3,3) = 0.06	 y(3,0,3) = 0.94	 
y(1,2,3) = 0.14	 y(2,1,3) = 0.86	 
y(1,3,3) = 0.14	 y(3,1,3) = 0.86	 
y(2,3,3) = 0.31	 y(3,2,3) = 0.69	 
obj:  0.8259876249405046
solutions:  1
+ 0.11111111111111112x(3,3) + 0.022222222222222216x(2,3) 
[(3, 2), (0, 0), (3, 3), (3, 0), (0, 2), (2, 1), (2, 0), (2, 3), (1, 0), (1, 1)]
cliques:  1 mip: 59
C:  29.683098591548735
x(0,0) = 1.00	 x(0,1) = 18.00	 x(0,2) = 12.00	 x(0,3) = 11.00	 
x(1,0) = -0.00	 x(1,1) = 8.00	 x(1,2) = 13.00	 x(1,3) = 1.00	 
x(2,0) = 28.68	 x(2,1) = 21.68	 x(2,2) = 18.68	 x(2,3) = 9.68	 
x(3,0) = 10.06	 x(3,1) = 0.06	 x(3,2) = 19.06	 x(3,3) = 7.06	 
y(0,1,0) = 0.00	 y(1,0,0) = 1.00	 
y(0,2,0) = 0.75	 y(2,0,0) = 0.25	 
y(0,3,0) = 0.95	 y(3,0,0) = 0.05	 
y(1,2,0) = 0.86	 y(2,1,0) = 0.14	 
y(1,3,0) = 0.56	 y(3,1,0) = 0.44	 
y(2,3,0) = 0.00	 y(3,2,0) = 1.00	 
y(0,1,1) = 0.00	 y(1,0,1) = 1.00	 
y(0,2,1) = 0.41	 y(2,0,1) = 0.59	 
y(0,3,1) = 0.00	 y(3,0,1) = 1.00	 
y(1,2,1) = 0.62	 y(2,1,1) = 0.38	 
y(1,3,1) = 0.04	 y(3,1,1) = 0.96	 
y(2,3,1) = 0.00	 y(3,2,1) = 1.00	 
y(0,1,2) = 0.64	 y(1,0,2) = 0.36	 
y(0,2,2) = 0.48	 y(2,0,2) = 0.52	 
y(0,3,2) = 0.95	 y(3,0,2) = 0.05	 
y(1,2,2) = 0.38	 y(2,1,2) = 0.62	 
y(1,3,2) = 0.92	 y(3,1,2) = 0.08	 
y(2,3,2) = 0.85	 y(3,2,2) = 0.15	 
y(0,1,3) = 0.04	 y(1,0,3) = 0.96	 
y(0,2,3) = 0.38	 y(2,0,3) = 0.62	 
y(0,3,3) = 0.05	 y(3,0,3) = 0.95	 
y(1,2,3) = 0.55	 y(2,1,3) = 0.45	 
y(1,3,3) = 0.87	 y(3,1,3) = 0.13	 
y(2,3,3) = 0.02	 y(3,2,3) = 0.98	 
obj:  0.9457863133463489
solutions:  1
+ 0.06713164777680906x(1,3) + 0.06102877070619005x(2,3) + 0.02615518744551003x(0,3) 
[(0, 1), (1, 3), (3, 0), (2, 1), (2, 3), (2, 2), (1, 0), (0, 2), (0, 3)]
cliques:  1 mip: 72
C:  30.999998863927555
x(0,0) = 1.96	 x(0,1) = 21.00	 x(0,2) = 15.00	 x(0,3) = 11.96	 
x(1,0) = -0.00	 x(1,1) = 8.00	 x(1,2) = 13.00	 x(1,3) = 1.00	 
x(2,0) = 30.00	 x(2,1) = 22.16	 x(2,2) = 19.16	 x(2,3) = 10.16	 
x(3,0) = 10.00	 x(3,1) = 0.00	 x(3,2) = 21.00	 x(3,3) = 7.00	 
y(0,1,0) = -0.00	 y(1,0,0) = 1.00	 
y(0,2,0) = 0.84	 y(2,0,0) = 0.16	 
y(0,3,0) = 0.90	 y(3,0,0) = 0.10	 
y(1,2,0) = 0.90	 y(2,1,0) = 0.10	 
y(1,3,0) = 0.99	 y(3,1,0) = 0.01	 
y(2,3,0) = 0.00	 y(3,2,0) = 1.00	 
y(0,1,1) = 0.00	 y(1,0,1) = 1.00	 
y(0,2,1) = 0.65	 y(2,0,1) = 0.35	 
y(0,3,1) = 0.00	 y(3,0,1) = 1.00	 
y(1,2,1) = 0.76	 y(2,1,1) = 0.24	 
y(1,3,1) = 0.04	 y(3,1,1) = 0.96	 
y(2,3,1) = 0.00	 y(3,2,1) = 1.00	 
y(0,1,2) = 0.67	 y(1,0,2) = 0.33	 
y(0,2,2) = 0.34	 y(2,0,2) = 0.66	 
y(0,3,2) = 1.00	 y(3,0,2) = 0.00	 
y(1,2,2) = 0.91	 y(2,1,2) = 0.09	 
y(1,3,2) = 1.00	 y(3,1,2) = 0.00	 
y(2,3,2) = 0.56	 y(3,2,2) = 0.44	 
y(0,1,3) = 0.00	 y(1,0,3) = 1.00	 
y(0,2,3) = 0.58	 y(2,0,3) = 0.42	 
y(0,3,3) = 0.10	 y(3,0,3) = 0.90	 
y(1,2,3) = 0.96	 y(2,1,3) = 0.04	 
y(1,3,3) = 0.96	 y(3,1,3) = 0.04	 
y(2,3,3) = 0.00	 y(3,2,3) = 1.00	 
obj:  0.8293029290204708
solutions:  1
+ 0.022759601706970122x(1,2) + 0.017780938833570414x(3,2) + 0.01066856330014225x(0,2) 
[(0, 1), (1, 2), (3, 2), (2, 1), (2, 3), (2, 2), (0, 3), (0, 2)]
cliques:  1 mip: 48
C:  32.36199365490067
x(0,0) = 5.58	 x(0,1) = 25.36	 x(0,2) = 19.36	 x(0,3) = 15.58	 
x(1,0) = 5.59	 x(1,1) = 14.15	 x(1,2) = 19.15	 x(1,3) = 7.15	 
x(2,0) = 31.36	 x(2,1) = 23.85	 x(2,2) = 20.85	 x(2,3) = 10.90	 
x(3,0) = 10.00	 x(3,1) = 0.00	 x(3,2) = 20.11	 x(3,3) = 7.00	 
y(0,1,0) = 0.04	 y(1,0,0) = 0.96	 
y(0,2,0) = 0.73	 y(2,0,0) = 0.27	 
y(0,3,0) = 0.72	 y(3,0,0) = 0.28	 
y(1,2,0) = 1.00	 y(2,1,0) = 0.00	 
y(1,3,0) = 0.65	 y(3,1,0) = 0.35	 
y(2,3,0) = 0.00	 y(3,2,0) = 1.00	 
y(0,1,1) = 0.00	 y(1,0,1) = 1.00	 
y(0,2,1) = 0.21	 y(2,0,1) = 0.79	 
y(0,3,1) = 0.00	 y(3,0,1) = 1.00	 
y(1,2,1) = 1.00	 y(2,1,1) = 0.00	 
y(1,3,1) = 0.27	 y(3,1,1) = 0.73	 
y(2,3,1) = 0.00	 y(3,2,1) = 1.00	 
y(0,1,2) = 0.56	 y(1,0,2) = 0.44	 
y(0,2,2) = 0.18	 y(2,0,2) = 0.82	 
y(0,3,2) = 0.71	 y(3,0,2) = 0.29	 
y(1,2,2) = 0.44	 y(2,1,2) = 0.56	 
y(1,3,2) = 0.72	 y(3,1,2) = 0.28	 
y(2,3,2) = 0.37	 y(3,2,2) = 0.63	 
y(0,1,3) = 0.04	 y(1,0,3) = 0.96	 
y(0,2,3) = 0.19	 y(2,0,3) = 0.81	 
y(0,3,3) = 0.28	 y(3,0,3) = 0.72	 
y(1,2,3) = 0.68	 y(2,1,3) = 0.32	 
y(1,3,3) = 0.12	 y(3,1,3) = 0.88	 
y(2,3,3) = 0.00	 y(3,2,3) = 1.00	 
obj:  0.9533404537567652
solutions:  1
+ 0.014930399640772323x(1,2) + 0.02346205657835655x(3,2) + 0.010103277952402331x(0,2) 
[(1, 2), (3, 2), (1, 3), (3, 0), (2, 3), (2, 2), (1, 0), (0, 2)]
cliques:  1 mip: 85
C:  33.70833266951685
x(0,0) = 1.00	 x(0,1) = 26.71	 x(0,2) = 20.71	 x(0,3) = 11.00	 
x(1,0) = 0.00	 x(1,1) = 8.98	 x(1,2) = 15.71	 x(1,3) = 1.00	 
x(2,0) = 32.71	 x(2,1) = 25.71	 x(2,2) = 22.71	 x(2,3) = 13.71	 
x(3,0) = 11.00	 x(3,1) = 1.00	 x(3,2) = 23.71	 x(3,3) = 8.00	 
y(0,1,0) = 0.63	 y(1,0,0) = 0.37	 
y(0,2,0) = 0.74	 y(2,0,0) = 0.26	 
y(0,3,0) = 1.00	 y(3,0,0) = 0.00	 
y(1,2,0) = 0.96	 y(2,1,0) = 0.04	 
y(1,3,0) = 1.00	 y(3,1,0) = 0.00	 
y(2,3,0) = 0.00	 y(3,2,0) = 1.00	 
y(0,1,1) = 0.00	 y(1,0,1) = 1.00	 
y(0,2,1) = 0.32	 y(2,0,1) = 0.68	 
y(0,3,1) = 0.00	 y(3,0,1) = 1.00	 
y(1,2,1) = 0.91	 y(2,1,1) = 0.09	 
y(1,3,1) = 0.04	 y(3,1,1) = 0.96	 
y(2,3,1) = 0.00	 y(3,2,1) = 1.00	 
y(0,1,2) = 0.09	 y(1,0,2) = 0.91	 
y(0,2,2) = 0.22	 y(2,0,2) = 0.78	 
y(0,3,2) = 0.39	 y(3,0,2) = 0.61	 
y(1,2,2) = 0.78	 y(2,1,2) = 0.22	 
y(1,3,2) = 1.00	 y(3,1,2) = 0.00	 
y(2,3,2) = 0.59	 y(3,2,2) = 0.41	 
y(0,1,3) = 0.00	 y(1,0,3) = 1.00	 
y(0,2,3) = 0.51	 y(2,0,3) = 0.49	 
y(0,3,3) = 0.00	 y(3,0,3) = 1.00	 
y(1,2,3) = 0.89	 y(2,1,3) = 0.11	 
y(1,3,3) = 1.00	 y(3,1,3) = 0.00	 
y(2,3,3) = 0.00	 y(3,2,3) = 1.00	 
obj:  1.000004224568043
erro
[(0, 1), (3, 2), (0, 0), (1, 0), (2, 1), (2, 3), (2, 2), (0, 3), (0, 2)]
cliques:  0 mip: 58
C:  34.333331278464684
x(0,0) = 1.00	 x(0,1) = 24.33	 x(0,2) = 18.33	 x(0,3) = 13.14	 
x(1,0) = 0.00	 x(1,1) = 8.00	 x(1,2) = 16.33	 x(1,3) = 1.00	 
x(2,0) = 31.22	 x(2,1) = 24.22	 x(2,2) = 21.22	 x(2,3) = 12.22	 
x(3,0) = 15.33	 x(3,1) = 0.40	 x(3,2) = 24.33	 x(3,3) = 7.40	 
y(0,1,0) = 0.63	 y(1,0,0) = 0.37	 
y(0,2,0) = 0.92	 y(2,0,0) = 0.08	 
y(0,3,0) = 0.71	 y(3,0,0) = 0.29	 
y(1,2,0) = 0.95	 y(2,1,0) = 0.05	 
y(1,3,0) = 0.88	 y(3,1,0) = 0.12	 
y(2,3,0) = 0.00	 y(3,2,0) = 1.00	 
y(0,1,1) = 0.00	 y(1,0,1) = 1.00	 
y(0,2,1) = 0.57	 y(2,0,1) = 0.43	 
y(0,3,1) = 0.00	 y(3,0,1) = 1.00	 
y(1,2,1) = 0.88	 y(2,1,1) = 0.12	 
y(1,3,1) = 0.03	 y(3,1,1) = 0.97	 
y(2,3,1) = 0.00	 y(3,2,1) = 1.00	 
y(0,1,2) = 0.19	 y(1,0,2) = 0.81	 
y(0,2,2) = 0.26	 y(2,0,2) = 0.74	 
y(0,3,2) = 1.00	 y(3,0,2) = 0.00	 
y(1,2,2) = 0.51	 y(2,1,2) = 0.49	 
y(1,3,2) = 1.00	 y(3,1,2) = 0.00	 
y(2,3,2) = 1.00	 y(3,2,2) = 0.00	 
y(0,1,3) = -0.00	 y(1,0,3) = 1.00	 
y(0,2,3) = 0.35	 y(2,0,3) = 0.65	 
y(0,3,3) = 0.14	 y(3,0,3) = 0.86	 
y(1,2,3) = 0.76	 y(2,1,3) = 0.24	 
y(1,3,3) = 0.69	 y(3,1,3) = 0.31	 
y(2,3,3) = 0.00	 y(3,2,3) = 1.00	 
obj:  0.925528049324642
solutions:  1
+ 0.013698630136986292x(1,3) + 0.1232876712328767x(3,3) 
[(1, 2), (0, 1), (0, 0), (1, 3), (3, 3), (2, 1), (2, 3), (2, 2), (1, 0), (0, 3)]
cliques:  1 mip: 84
C:  34.99999672527477
x(0,0) = 0.92	 x(0,1) = 26.28	 x(0,2) = 19.19	 x(0,3) = 15.21	 
x(1,0) = 0.84	 x(1,1) = 9.71	 x(1,2) = 16.92	 x(1,3) = 1.84	 
x(2,0) = 32.20	 x(2,1) = 24.26	 x(2,2) = 19.91	 x(2,3) = 10.91	 
x(3,0) = 14.59	 x(3,1) = 0.91	 x(3,2) = 23.59	 x(3,3) = 7.91	 
y(0,1,0) = 0.08	 y(1,0,0) = 0.92	 
y(0,2,0) = 0.92	 y(2,0,0) = 0.08	 
y(0,3,0) = 0.75	 y(3,0,0) = 0.25	 
y(1,2,0) = 0.93	 y(2,1,0) = 0.07	 
y(1,3,0) = 0.84	 y(3,1,0) = 0.16	 
y(2,3,0) = 0.00	 y(3,2,0) = 1.00	 
y(0,1,1) = 0.00	 y(1,0,1) = 1.00	 
y(0,2,1) = 0.19	 y(2,0,1) = 0.81	 
y(0,3,1) = 0.00	 y(3,0,1) = 1.00	 
y(1,2,1) = 0.82	 y(2,1,1) = 0.18	 
y(1,3,1) = 0.08	 y(3,1,1) = 0.92	 
y(2,3,1) = 0.00	 y(3,2,1) = 1.00	 
y(0,1,2) = 0.17	 y(1,0,2) = 0.83	 
y(0,2,2) = 0.15	 y(2,0,2) = 0.85	 
y(0,3,2) = 0.83	 y(3,0,2) = 0.17	 
y(1,2,2) = 0.26	 y(2,1,2) = 0.74	 
y(1,3,2) = 0.82	 y(3,1,2) = 0.18	 
y(2,3,2) = 1.00	 y(3,2,2) = 0.00	 
y(0,1,3) = 0.00	 y(1,0,3) = 1.00	 
y(0,2,3) = 0.20	 y(2,0,3) = 0.80	 
y(0,3,3) = 0.22	 y(3,0,3) = 0.78	 
y(1,2,3) = 0.64	 y(2,1,3) = 0.36	 
y(1,3,3) = 0.38	 y(3,1,3) = 0.62	 
y(2,3,3) = 0.00	 y(3,2,3) = 1.00	 
obj:  0.9866850165629889
solutions:  1
+ 0.006122448979591836x(1,3) + 0.10010465724751441x(3,3) + 0.014599686028257442x(2,3) + 0.0016221873364730465x(0,3) 
[(1, 2), (1, 3), (0, 0), (3, 3), (3, 0), (2, 3), (2, 2), (0, 3)]
cliques:  1 mip: 95
C:  34.99999672527477
x(0,0) = 0.91	 x(0,1) = 26.25	 x(0,2) = 19.18	 x(0,3) = 15.19	 
x(1,0) = 0.92	 x(1,1) = 9.68	 x(1,2) = 16.91	 x(1,3) = 1.92	 
x(2,0) = 32.19	 x(2,1) = 24.26	 x(2,2) = 20.02	 x(2,3) = 11.02	 
x(3,0) = 14.60	 x(3,1) = 1.02	 x(3,2) = 23.60	 x(3,3) = 8.02	 
y(0,1,0) = 0.09	 y(1,0,0) = 0.91	 
y(0,2,0) = 0.92	 y(2,0,0) = 0.08	 
y(0,3,0) = 0.75	 y(3,0,0) = 0.25	 
y(1,2,0) = 0.93	 y(2,1,0) = 0.07	 
y(1,3,0) = 0.84	 y(3,1,0) = 0.16	 
y(2,3,0) = 0.00	 y(3,2,0) = 1.00	 
y(0,1,1) = 0.00	 y(1,0,1) = 1.00	 
y(0,2,1) = 0.19	 y(2,0,1) = 0.81	 
y(0,3,1) = 0.00	 y(3,0,1) = 1.00	 
y(1,2,1) = 0.82	 y(2,1,1) = 0.18	 
y(1,3,1) = 0.07	 y(3,1,1) = 0.93	 
y(2,3,1) = 0.00	 y(3,2,1) = 1.00	 
y(0,1,2) = 0.17	 y(1,0,2) = 0.83	 
y(0,2,2) = 0.15	 y(2,0,2) = 0.85	 
y(0,3,2) = 0.83	 y(3,0,2) = 0.17	 
y(1,2,2) = 0.27	 y(2,1,2) = 0.73	 
y(1,3,2) = 0.83	 y(3,1,2) = 0.17	 
y(2,3,2) = 1.00	 y(3,2,2) = 0.00	 
y(0,1,3) = 0.00	 y(1,0,3) = 1.00	 
y(0,2,3) = 0.21	 y(2,0,3) = 0.79	 
y(0,3,3) = 0.21	 y(3,0,3) = 0.79	 
y(1,2,3) = 0.64	 y(2,1,3) = 0.36	 
y(1,3,3) = 0.38	 y(3,1,3) = 0.62	 
y(2,3,3) = 0.00	 y(3,2,3) = 1.00	 
obj:  0.9999999999999998
erro
[(1, 2), (1, 3), (0, 0), (3, 3), (3, 0), (2, 3), (2, 2), (0, 3)]
cliques:  0 mip: 96
C:  34.99999672527477
x(0,0) = 0.91	 x(0,1) = 26.25	 x(0,2) = 19.18	 x(0,3) = 15.19	 
x(1,0) = 0.92	 x(1,1) = 9.68	 x(1,2) = 16.91	 x(1,3) = 1.92	 
x(2,0) = 32.19	 x(2,1) = 24.26	 x(2,2) = 20.02	 x(2,3) = 11.02	 
x(3,0) = 14.60	 x(3,1) = 1.02	 x(3,2) = 23.60	 x(3,3) = 8.02	 
y(0,1,0) = 0.09	 y(1,0,0) = 0.91	 
y(0,2,0) = 0.92	 y(2,0,0) = 0.08	 
y(0,3,0) = 0.75	 y(3,0,0) = 0.25	 
y(1,2,0) = 0.93	 y(2,1,0) = 0.07	 
y(1,3,0) = 0.84	 y(3,1,0) = 0.16	 
y(2,3,0) = 0.00	 y(3,2,0) = 1.00	 
y(0,1,1) = 0.00	 y(1,0,1) = 1.00	 
y(0,2,1) = 0.19	 y(2,0,1) = 0.81	 
y(0,3,1) = 0.00	 y(3,0,1) = 1.00	 
y(1,2,1) = 0.82	 y(2,1,1) = 0.18	 
y(1,3,1) = 0.07	 y(3,1,1) = 0.93	 
y(2,3,1) = 0.00	 y(3,2,1) = 1.00	 
y(0,1,2) = 0.17	 y(1,0,2) = 0.83	 
y(0,2,2) = 0.15	 y(2,0,2) = 0.85	 
y(0,3,2) = 0.83	 y(3,0,2) = 0.17	 
y(1,2,2) = 0.27	 y(2,1,2) = 0.73	 
y(1,3,2) = 0.83	 y(3,1,2) = 0.17	 
y(2,3,2) = 1.00	 y(3,2,2) = 0.00	 
y(0,1,3) = 0.00	 y(1,0,3) = 1.00	 
y(0,2,3) = 0.21	 y(2,0,3) = 0.79	 
y(0,3,3) = 0.21	 y(3,0,3) = 0.79	 
y(1,2,3) = 0.64	 y(2,1,3) = 0.36	 
y(1,3,3) = 0.38	 y(3,1,3) = 0.62	 
y(2,3,3) = 0.00	 y(3,2,3) = 1.00	 
obj:  0.9999999999999998
erro
[(1, 2), (1, 3), (0, 0), (3, 3), (3, 0), (2, 3), (2, 2), (0, 3)]
cliques:  0 mip: 96
C:  34.99999672527477
x(0,0) = 0.91	 x(0,1) = 26.25	 x(0,2) = 19.18	 x(0,3) = 15.19	 
x(1,0) = 0.92	 x(1,1) = 9.68	 x(1,2) = 16.91	 x(1,3) = 1.92	 
x(2,0) = 32.19	 x(2,1) = 24.26	 x(2,2) = 20.02	 x(2,3) = 11.02	 
x(3,0) = 14.60	 x(3,1) = 1.02	 x(3,2) = 23.60	 x(3,3) = 8.02	 
y(0,1,0) = 0.09	 y(1,0,0) = 0.91	 
y(0,2,0) = 0.92	 y(2,0,0) = 0.08	 
y(0,3,0) = 0.75	 y(3,0,0) = 0.25	 
y(1,2,0) = 0.93	 y(2,1,0) = 0.07	 
y(1,3,0) = 0.84	 y(3,1,0) = 0.16	 
y(2,3,0) = 0.00	 y(3,2,0) = 1.00	 
y(0,1,1) = 0.00	 y(1,0,1) = 1.00	 
y(0,2,1) = 0.19	 y(2,0,1) = 0.81	 
y(0,3,1) = 0.00	 y(3,0,1) = 1.00	 
y(1,2,1) = 0.82	 y(2,1,1) = 0.18	 
y(1,3,1) = 0.07	 y(3,1,1) = 0.93	 
y(2,3,1) = 0.00	 y(3,2,1) = 1.00	 
y(0,1,2) = 0.17	 y(1,0,2) = 0.83	 
y(0,2,2) = 0.15	 y(2,0,2) = 0.85	 
y(0,3,2) = 0.83	 y(3,0,2) = 0.17	 
y(1,2,2) = 0.27	 y(2,1,2) = 0.73	 
y(1,3,2) = 0.83	 y(3,1,2) = 0.17	 
y(2,3,2) = 1.00	 y(3,2,2) = 0.00	 
y(0,1,3) = 0.00	 y(1,0,3) = 1.00	 
y(0,2,3) = 0.21	 y(2,0,3) = 0.79	 
y(0,3,3) = 0.21	 y(3,0,3) = 0.79	 
y(1,2,3) = 0.64	 y(2,1,3) = 0.36	 
y(1,3,3) = 0.38	 y(3,1,3) = 0.62	 
y(2,3,3) = 0.00	 y(3,2,3) = 1.00	 
obj:  0.9999999999999998
erro
[(1, 2), (1, 3), (0, 0), (3, 3), (3, 0), (2, 3), (2, 2), (0, 3)]
cliques:  0 mip: 96
C:  34.99999672527477
x(0,0) = 0.91	 x(0,1) = 26.25	 x(0,2) = 19.18	 x(0,3) = 15.19	 
x(1,0) = 0.92	 x(1,1) = 9.68	 x(1,2) = 16.91	 x(1,3) = 1.92	 
x(2,0) = 32.19	 x(2,1) = 24.26	 x(2,2) = 20.02	 x(2,3) = 11.02	 
x(3,0) = 14.60	 x(3,1) = 1.02	 x(3,2) = 23.60	 x(3,3) = 8.02	 
y(0,1,0) = 0.09	 y(1,0,0) = 0.91	 
y(0,2,0) = 0.92	 y(2,0,0) = 0.08	 
y(0,3,0) = 0.75	 y(3,0,0) = 0.25	 
y(1,2,0) = 0.93	 y(2,1,0) = 0.07	 
y(1,3,0) = 0.84	 y(3,1,0) = 0.16	 
y(2,3,0) = 0.00	 y(3,2,0) = 1.00	 
y(0,1,1) = 0.00	 y(1,0,1) = 1.00	 
y(0,2,1) = 0.19	 y(2,0,1) = 0.81	 
y(0,3,1) = 0.00	 y(3,0,1) = 1.00	 
y(1,2,1) = 0.82	 y(2,1,1) = 0.18	 
y(1,3,1) = 0.07	 y(3,1,1) = 0.93	 
y(2,3,1) = 0.00	 y(3,2,1) = 1.00	 
y(0,1,2) = 0.17	 y(1,0,2) = 0.83	 
y(0,2,2) = 0.15	 y(2,0,2) = 0.85	 
y(0,3,2) = 0.83	 y(3,0,2) = 0.17	 
y(1,2,2) = 0.27	 y(2,1,2) = 0.73	 
y(1,3,2) = 0.83	 y(3,1,2) = 0.17	 
y(2,3,2) = 1.00	 y(3,2,2) = 0.00	 
y(0,1,3) = 0.00	 y(1,0,3) = 1.00	 
y(0,2,3) = 0.21	 y(2,0,3) = 0.79	 
y(0,3,3) = 0.21	 y(3,0,3) = 0.79	 
y(1,2,3) = 0.64	 y(2,1,3) = 0.36	 
y(1,3,3) = 0.38	 y(3,1,3) = 0.62	 
y(2,3,3) = 0.00	 y(3,2,3) = 1.00	 
obj:  0.9999999999999998
erro
[(1, 2), (1, 3), (0, 0), (3, 3), (3, 0), (2, 3), (2, 2), (0, 3)]
cliques:  0 mip: 96
C:  34.99999672527477
x(0,0) = 0.91	 x(0,1) = 26.25	 x(0,2) = 19.18	 x(0,3) = 15.19	 
x(1,0) = 0.92	 x(1,1) = 9.68	 x(1,2) = 16.91	 x(1,3) = 1.92	 
x(2,0) = 32.19	 x(2,1) = 24.26	 x(2,2) = 20.02	 x(2,3) = 11.02	 
x(3,0) = 14.60	 x(3,1) = 1.02	 x(3,2) = 23.60	 x(3,3) = 8.02	 
y(0,1,0) = 0.09	 y(1,0,0) = 0.91	 
y(0,2,0) = 0.92	 y(2,0,0) = 0.08	 
y(0,3,0) = 0.75	 y(3,0,0) = 0.25	 
y(1,2,0) = 0.93	 y(2,1,0) = 0.07	 
y(1,3,0) = 0.84	 y(3,1,0) = 0.16	 
y(2,3,0) = 0.00	 y(3,2,0) = 1.00	 
y(0,1,1) = 0.00	 y(1,0,1) = 1.00	 
y(0,2,1) = 0.19	 y(2,0,1) = 0.81	 
y(0,3,1) = 0.00	 y(3,0,1) = 1.00	 
y(1,2,1) = 0.82	 y(2,1,1) = 0.18	 
y(1,3,1) = 0.07	 y(3,1,1) = 0.93	 
y(2,3,1) = 0.00	 y(3,2,1) = 1.00	 
y(0,1,2) = 0.17	 y(1,0,2) = 0.83	 
y(0,2,2) = 0.15	 y(2,0,2) = 0.85	 
y(0,3,2) = 0.83	 y(3,0,2) = 0.17	 
y(1,2,2) = 0.27	 y(2,1,2) = 0.73	 
y(1,3,2) = 0.83	 y(3,1,2) = 0.17	 
y(2,3,2) = 1.00	 y(3,2,2) = 0.00	 
y(0,1,3) = 0.00	 y(1,0,3) = 1.00	 
y(0,2,3) = 0.21	 y(2,0,3) = 0.79	 
y(0,3,3) = 0.21	 y(3,0,3) = 0.79	 
y(1,2,3) = 0.64	 y(2,1,3) = 0.36	 
y(1,3,3) = 0.38	 y(3,1,3) = 0.62	 
y(2,3,3) = 0.00	 y(3,2,3) = 1.00	 
obj:  0.9999999999999998
erro
[(1, 2), (1, 3), (0, 0), (3, 3), (3, 0), (2, 3), (2, 2), (0, 3)]
cliques:  0 mip: 96
C:  34.99999672527477
x(0,0) = 0.91	 x(0,1) = 26.25	 x(0,2) = 19.18	 x(0,3) = 15.19	 
x(1,0) = 0.92	 x(1,1) = 9.68	 x(1,2) = 16.91	 x(1,3) = 1.92	 
x(2,0) = 32.19	 x(2,1) = 24.26	 x(2,2) = 20.02	 x(2,3) = 11.02	 
x(3,0) = 14.60	 x(3,1) = 1.02	 x(3,2) = 23.60	 x(3,3) = 8.02	 
y(0,1,0) = 0.09	 y(1,0,0) = 0.91	 
y(0,2,0) = 0.92	 y(2,0,0) = 0.08	 
y(0,3,0) = 0.75	 y(3,0,0) = 0.25	 
y(1,2,0) = 0.93	 y(2,1,0) = 0.07	 
y(1,3,0) = 0.84	 y(3,1,0) = 0.16	 
y(2,3,0) = 0.00	 y(3,2,0) = 1.00	 
y(0,1,1) = 0.00	 y(1,0,1) = 1.00	 
y(0,2,1) = 0.19	 y(2,0,1) = 0.81	 
y(0,3,1) = 0.00	 y(3,0,1) = 1.00	 
y(1,2,1) = 0.82	 y(2,1,1) = 0.18	 
y(1,3,1) = 0.07	 y(3,1,1) = 0.93	 
y(2,3,1) = 0.00	 y(3,2,1) = 1.00	 
y(0,1,2) = 0.17	 y(1,0,2) = 0.83	 
y(0,2,2) = 0.15	 y(2,0,2) = 0.85	 
y(0,3,2) = 0.83	 y(3,0,2) = 0.17	 
y(1,2,2) = 0.27	 y(2,1,2) = 0.73	 
y(1,3,2) = 0.83	 y(3,1,2) = 0.17	 
y(2,3,2) = 1.00	 y(3,2,2) = 0.00	 
y(0,1,3) = 0.00	 y(1,0,3) = 1.00	 
y(0,2,3) = 0.21	 y(2,0,3) = 0.79	 
y(0,3,3) = 0.21	 y(3,0,3) = 0.79	 
y(1,2,3) = 0.64	 y(2,1,3) = 0.36	 
y(1,3,3) = 0.38	 y(3,1,3) = 0.62	 
y(2,3,3) = 0.00	 y(3,2,3) = 1.00	 
obj:  0.9999999999999998
erro
[(1, 2), (1, 3), (0, 0), (3, 3), (3, 0), (2, 3), (2, 2), (0, 3)]
cliques:  0 mip: 0
iterações: 14 cortes cliques encontrados: 8 mip: 1055 objective:  34.99999672527477
Coin0506I Presolve 157 (-171) rows, 90 (-71) columns and 490 (-260) elements
Clp1000I sum of infeasibilities 1.79124e-08 - average 1.14092e-10, 0 fixed columns
Coin0506I Presolve 157 (0) rows, 90 (0) columns and 490 (0) elements
Clp0029I End of values pass after 90 iterations
Clp0000I Optimal - objective value 29
Clp0000I Optimal - objective value 29
Coin0511I After Postsolve, objective 29, infeasibilities - dual 0 (0), primal 0 (0)
Clp0000I Optimal - objective value 29
Clp0000I Optimal - objective value 29
Clp0000I Optimal - objective value 29
Coin0511I After Postsolve, objective 29, infeasibilities - dual 0 (0), primal 0 (0)
Clp0032I Optimal objective 29 - 0 iterations time 0.012, Presolve 0.00, Idiot 0.01
Coin3009W Conflict graph built in 0.000 seconds, density: 0.096%
